NAME : calais312.output_tours.405.525146.tour
TYPE : SOLUTION PTSP
DIMENSION : 312
TOUR_SECTION
SERVICE_TIME = 24975
DAY = 1
Dimention = 39
1
294
297
217
211
92
48
148
179
8
6
178
177
63
299
185
151
135
34
184
152
265
267
298
311
281
278
219
203
204
227
232
242
228
279
159
73
75
76
------------
SERVICE_TIME = 25013
DAY = 2
Dimention = 49
1
66
172
121
33
67
245
187
189
195
198
202
15
276
277
273
307
305
283
17
21
31
285
154
109
113
255
259
253
293
258
289
271
237
260
37
41
226
2
162
163
150
104
78
46
90
142
119
77
------------
SERVICE_TIME = 25160
DAY = 3
Dimention = 45
1
171
122
247
124
49
295
53
213
11
10
215
93
95
58
42
157
312
252
80
129
3
24
160
161
30
248
36
134
135
151
115
114
249
262
264
274
205
208
5
18
275
132
40
69
------------
SERVICE_TIME = 25196
DAY = 4
Dimention = 48
1
74
141
72
71
70
117
110
38
35
251
310
263
268
288
280
210
231
206
197
201
194
54
170
169
246
143
116
149
162
163
137
302
151
150
34
108
136
183
146
85
87
224
131
155
181
25
19
------------
SERVICE_TIME = 25114
DAY = 5
Dimention = 48
1
100
52
186
99
102
125
96
130
212
214
12
261
250
257
60
236
22
133
81
82
83
84
79
23
105
226
36
163
301
240
114
151
150
135
256
265
303
291
304
31
298
118
292
272
309
308
16
------------
SERVICE_TIME = 25170
DAY = 6
Dimention = 51
1
111
113
112
302
24
160
30
162
151
150
136
107
153
255
259
289
285
253
293
271
237
260
37
138
132
307
287
17
283
311
305
306
281
282
290
191
14
196
199
200
56
64
88
86
3
223
127
182
142
144
------------
SERVICE_TIME = 25189
DAY = 7
Dimention = 46
1
32
140
117
175
267
262
263
264
286
279
278
275
18
4
209
233
198
297
188
173
92
36
149
163
115
114
152
151
150
135
34
116
161
55
129
80
167
45
225
59
238
57
120
122
98
------------
SERVICE_TIME = 25048
DAY = 8
Dimention = 51
1
50
51
20
49
244
46
61
156
180
28
174
239
85
145
222
41
226
162
163
302
185
151
150
108
136
154
109
38
35
310
251
258
268
273
274
15
277
309
280
284
288
229
202
118
176
139
68
73
75
76
------------
SERVICE_TIME = 25020
DAY = 9
Dimention = 47
1
16
230
228
227
241
219
220
203
204
308
65
298
31
304
303
291
265
249
256
114
184
151
150
135
36
164
24
160
30
165
42
83
84
3
79
81
82
7
266
9
8
60
63
147
91
97
------------
SERVICE_TIME = 25022
DAY = 10
Dimention = 50
1
169
66
121
119
142
90
13
211
201
192
245
197
195
242
207
232
306
305
283
287
17
311
281
307
132
117
151
150
34
136
149
116
302
163
162
113
110
255
259
289
285
253
293
271
237
260
37
67
141
------------
SERVICE_TIME = 25171
DAY = 11
Dimention = 47
1
53
171
124
69
262
263
264
118
292
275
43
158
301
115
114
112
151
150
135
134
36
248
226
161
168
126
146
87
129
80
269
58
62
157
235
224
131
254
270
212
10
213
11
215
122
77
------------
SERVICE_TIME = 24982
DAY = 12
Dimention = 47
1
74
72
107
136
151
150
108
149
3
86
85
19
56
106
30
160
24
302
163
162
111
153
38
35
251
310
268
309
280
18
288
5
208
210
231
206
205
216
14
196
199
200
193
194
54
170
------------
SERVICE_TIME = 25013
DAY = 13
Dimention = 49
1
102
103
92
47
89
29
84
79
81
82
83
167
44
45
234
60
296
22
116
36
152
114
117
272
132
308
297
198
279
16
278
298
267
291
303
304
31
265
256
151
150
34
135
125
100
52
186
99
------------
SERVICE_TIME = 24980
DAY = 14
Dimention = 53
1
101
221
39
273
274
307
118
255
259
289
285
253
293
258
271
237
260
37
136
41
226
162
113
151
150
300
299
302
163
142
128
48
166
179
27
26
148
80
123
178
177
88
64
94
46
244
214
12
190
217
294
49
------------
SERVICE_TIME = 25052
DAY = 15
Dimention = 45
1
32
140
154
109
114
115
151
150
149
135
249
262
263
264
21
17
287
283
311
305
306
282
4
243
209
290
281
275
15
276
277
202
218
159
6
225
59
57
78
120
33
122
98
172
------------
SERVICE_TIME = 25079
DAY = 16
Dimention = 54
1
76
75
73
169
50
51
20
295
173
246
247
93
95
42
180
156
61
104
3
85
129
162
185
151
150
34
108
163
302
2
116
24
160
161
30
36
136
110
38
35
40
117
175
286
309
229
233
187
189
197
201
68
141
------------
SERVICE_TIME = 25115
DAY = 17
Dimention = 53
1
71
70
107
226
137
301
151
150
135
184
256
265
251
310
304
31
303
291
268
298
288
284
18
280
308
132
292
65
118
63
224
131
60
252
312
266
8
155
83
81
82
84
79
87
146
181
25
147
91
183
143
97
------------
SERVICE_TIME = 25095
DAY = 18
Dimention = 48
1
67
111
114
113
240
115
112
302
163
136
36
149
162
151
150
153
255
259
289
285
253
293
271
237
260
37
307
230
228
227
203
204
220
219
16
212
13
211
130
56
90
105
23
96
142
119
121
------------
SERVICE_TIME = 25043
DAY = 19
Dimention = 47
1
66
171
124
77
69
138
117
275
278
279
232
242
207
198
195
297
245
191
14
196
199
200
53
92
58
157
167
45
236
257
261
250
133
86
3
129
80
223
116
24
248
30
127
182
144
122
------------
SERVICE_TIME = 25022
DAY = 20
Dimention = 52
1
74
72
35
264
273
274
309
287
306
281
305
311
283
17
267
263
262
258
38
114
152
151
150
108
34
135
134
136
36
41
226
162
163
302
160
161
55
85
238
19
46
244
10
213
11
215
188
194
54
49
170
------------
SERVICE_TIME = 24980
DAY = 21
Dimention = 47
1
102
222
149
151
150
145
84
81
83
82
79
28
174
125
100
52
186
99
206
205
208
5
210
231
202
308
15
277
132
272
118
298
31
268
291
303
304
310
251
265
249
256
154
109
176
139
------------
SERVICE_TIME = 24981
DAY = 22
Dimention = 49
1
169
64
88
22
131
7
9
60
239
42
3
165
142
201
197
16
307
280
18
288
285
289
253
293
255
259
271
237
260
114
115
113
136
36
30
116
24
164
302
163
162
151
150
135
110
37
117
141
------------
SERVICE_TIME = 25141
DAY = 23
Dimention = 49
1
98
122
120
57
161
226
162
185
151
150
34
135
107
149
163
301
302
160
146
87
85
129
80
81
224
225
59
212
214
12
192
229
290
282
306
4
209
241
309
275
292
43
68
140
32
73
75
76
------------
SERVICE_TIME = 25085
DAY = 24
Dimention = 48
1
117
175
286
132
233
118
298
17
284
281
305
311
283
287
264
263
303
262
35
38
153
111
114
112
151
150
108
136
36
126
269
168
180
62
235
254
270
8
61
156
56
158
97
173
20
51
50
------------
SERVICE_TIME = 25040
DAY = 25
Dimention = 51
1
307
308
297
14
196
199
200
193
216
198
279
278
65
267
291
268
31
304
310
289
251
265
256
135
184
151
150
162
163
302
24
116
30
106
3
86
266
60
84
79
82
83
167
45
63
90
89
92
147
91
------------
SERVICE_TIME = 25021
DAY = 26
Dimention = 49
1
49
121
119
103
142
29
48
234
177
44
296
244
13
211
47
46
226
149
36
41
151
150
34
136
152
115
113
114
255
259
285
253
293
258
271
237
260
37
274
273
230
228
227
203
204
219
16
67
------------
SERVICE_TIME = 25131
DAY = 27
Dimention = 50
1
77
69
39
117
118
288
18
306
280
275
15
277
309
202
195
245
220
190
217
294
53
66
171
101
124
128
94
148
26
27
179
166
58
157
178
81
123
80
85
129
161
160
163
248
162
151
150
221
122
------------
SERVICE_TIME = 25081
DAY = 28
Dimention = 53
1
74
72
201
197
194
54
170
172
169
33
131
42
19
78
134
135
108
136
36
30
116
24
300
299
302
151
150
110
154
109
114
38
35
249
262
303
263
264
21
298
17
287
283
311
305
281
242
207
243
232
132
141
------------
SERVICE_TIME = 25012
DAY = 29
Dimention = 45
1
100
246
247
102
107
149
162
163
301
2
226
125
93
95
88
104
146
3
87
84
79
82
83
224
60
6
212
213
11
215
10
52
186
99
295
218
231
308
292
272
307
276
159
40
------------
SERVICE_TIME = 25060
DAY = 30
Dimention = 50
1
71
70
143
142
56
64
25
183
136
36
137
302
151
150
34
135
112
115
113
114
111
153
260
237
271
255
259
293
253
291
268
31
304
285
310
251
289
265
256
37
189
187
206
205
208
5
210
118
117
------------
DELAYS_SECTION
-2 -3 -7 -2 -15 -10 -10 -10 -3 -2 -6 -10 -6 -2 -6 -3 -3 -4 -10 -2 -6 -6 -4 -4 -15 -15 -9 -14 -3 -2 -8 -1 -5 -5 -3 -1 -5 -15 -4 -1 -2 -12 -13 -8 -1 -14 -15 -4 -9 -9 -6 -3 -5 -8 -7 -8 -2 -10 -6 -10 -11 -10 -7 -10 -2 -2 -10 -4 -5 -5 -5 -10 -5 -10 -10 -1 -1 -6 -2 -6 -6 -6 -5 -5 -7 -4 -7 -14 -2 -10 -8 -4 -15 -3 -6 -10 -8 -6 -6 -15 -6 -14 -2 -6 -13 -7 -5 -2 -5 -7 -7 -2 -4 -3 -5 -5 -5 -2 -9 -2 -4 -15 -3 -6 -12 -8 -15 -5 -6 -5 -3 -5 -4 -4 -4 -5 -7 -9 -8 -5 -2 -4 -7 -9 -5 -10 -15 -5 -2 -3 -8 -7 -1 -4 -9 -3 -12 -15 -4 -4 -1 -2 -10 -10 -15 -8 -11 -4 -4 -3 -1 -7 -9 -8 -9 -15 -15 -15 -10 -5 -7 -4 -10 -10 -6 -1 -7 -2 -15 -7 -11 -13 -4 -2 -6 -4 -1 -6 -7 -5 -1 -10 -10 -3 -4 -10 -2 -8 -4 -10 -6 -2 -5 -3 -13 -15 -15 -10 -10 -15 -9 -7 -4 -8 -1 -10 -10 -9 -10 -4 -10 -7 -14 -11 -6 -2 -8 -9 -5 -10 -10 -15 -8 -1 -5 -3 -3 -3 -6 -4 -2 -2 -12 -2 -6 -5 -1 -1 -1 -6 -3 -5 -4 -6 -10 -8 -5 -11 -11 -2 -6 -2 -4 -3 -1 -2 -8 -8 -5 -6 -7 -1 -9 -2 -8 -6 -4 -1 -6 -6 -5 -1 -15 -4 -13 -8 -6 -15 -15 -6 -4 -6 -6 -2 -6 -1 -6 -5 -5 -6 -2 
-15 -2 -6 -1 -14 -9 -9 -9 -2 -1 -5 -9 -5 -8 -5 -6 -2 -3 -9 -15 -5 -5 -3 -3 -14 -14 -8 -13 -2 -6 -7 -15 -4 -4 -2 -6 -4 -14 -3 -8 -1 -11 -12 -7 -8 -13 -14 -3 -8 -8 -5 -2 -4 -7 -6 -7 -1 -9 -5 -9 -10 -9 -6 -9 -10 -10 -9 -3 -4 -4 -4 -9 -4 -9 -9 -10 -15 -5 -1 -5 -5 -5 -4 -4 -6 -3 -6 -13 -10 -9 -7 -3 -14 -2 -5 -9 -7 -5 -5 -14 -5 -13 -15 -5 -12 -6 -4 -8 -4 -6 -6 -6 -3 -2 -4 -4 -4 -10 -8 -10 -3 -14 -2 -5 -11 -7 -14 -4 -5 -4 -2 -4 -3 -3 -3 -4 -6 -8 -7 -4 -6 -3 -6 -8 -4 -9 -14 -4 -3 -2 -7 -6 -8 -3 -8 -2 -11 -14 -3 -3 -4 -4 -9 -9 -14 -7 -10 -3 -3 -2 -15 -6 -8 -7 -8 -14 -14 -14 -9 -4 -6 -3 -9 -9 -5 -15 -6 -15 -14 -6 -10 -12 -3 -10 -5 -3 -8 -5 -6 -4 -8 -9 -9 -2 -3 -9 -1 -7 -3 -9 -5 -1 -4 -2 -12 -14 -14 -9 -9 -14 -8 -6 -3 -7 -5 -9 -9 -8 -9 -3 -9 -6 -13 -10 -5 -6 -7 -8 -4 -9 -9 -14 -7 -10 -4 -2 -2 -2 -5 -3 -1 -6 -11 -6 -5 -4 -8 -6 -6 -5 -2 -4 -3 -5 -9 -7 -4 -10 -10 -6 -5 -8 -3 -2 -15 -8 -7 -7 -4 -5 -6 -6 -8 -6 -7 -5 -3 -6 -5 -5 -4 -6 -14 -3 -12 -7 -5 -14 -14 -5 -3 -5 -5 -6 -5 -6 -5 -4 -4 -5 -1 
-14 -5 -5 -10 -13 -8 -8 -8 -10 -10 -4 -8 -4 -7 -4 -5 -6 -2 -8 -14 -4 -4 -5 -2 -13 -13 -7 -12 -5 -5 -6 -14 -3 -3 -4 -5 -3 -13 -15 -7 -8 -10 -11 -6 -7 -12 -13 -8 -7 -7 -4 -10 -3 -6 -5 -6 -10 -8 -4 -8 -9 -8 -5 -8 -9 -9 -8 -10 -3 -3 -3 -8 -3 -8 -8 -9 -14 -4 -6 -4 -4 -4 -3 -3 -5 -2 -5 -12 -9 -8 -6 -15 -13 -15 -4 -8 -6 -4 -4 -13 -4 -12 -14 -4 -11 -5 -3 -7 -3 -5 -5 -5 -4 -6 -3 -3 -3 -9 -7 -9 -6 -13 -10 -4 -10 -6 -13 -6 -4 -3 -6 -3 -10 -4 -2 -3 -5 -7 -6 -3 -5 -2 -5 -7 -3 -8 -13 -3 -2 -3 -6 -5 -7 -2 -7 -10 -10 -13 -6 -6 -3 -3 -8 -8 -13 -6 -9 -2 -2 -10 -14 -5 -7 -6 -7 -13 -13 -13 -8 -3 -5 -2 -8 -8 -4 -14 -5 -14 -13 -5 -9 -11 -2 -9 -4 -2 -7 -4 -5 -3 -7 -8 -8 -10 -2 -8 -10 -6 -2 -8 -4 -10 -3 -10 -11 -13 -13 -8 -8 -13 -7 -5 -2 -6 -4 -8 -8 -7 -8 -2 -8 -5 -12 -9 -4 -5 -6 -7 -3 -8 -8 -13 -6 -9 -3 -15 -10 -8 -4 -2 -15 -5 -10 -5 -4 -3 -7 -5 -5 -4 -6 -3 -6 -4 -8 -6 -3 -9 -9 -5 -4 -7 -8 -6 -14 -7 -6 -6 -3 -4 -5 -5 -7 -5 -6 -4 -2 -5 -4 -4 -3 -5 -13 -15 -11 -6 -4 -13 -13 -4 -2 -4 -4 -5 -4 -5 -4 -3 -3 -4 -15 
-13 -4 -4 -9 -12 -7 -7 -7 -9 -9 -3 -7 -3 -6 -3 -4 -5 -10 -7 -13 -3 -3 -4 -15 -12 -12 -6 -11 -4 -4 -5 -13 -5 -6 -3 -4 -6 -12 -14 -6 -7 -9 -10 -5 -6 -11 -12 -7 -6 -6 -3 -9 -10 -5 -4 -5 -9 -7 -3 -7 -8 -7 -4 -7 -8 -8 -7 -9 -15 -15 -10 -7 -10 -7 -7 -8 -13 -3 -5 -3 -3 -3 -2 -6 -4 -8 -4 -11 -8 -7 -5 -14 -12 -14 -3 -7 -5 -3 -3 -12 -3 -11 -13 -3 -10 -4 -6 -6 -8 -4 -4 -4 -3 -5 -5 -5 -2 -8 -6 -8 -5 -12 -9 -3 -9 -5 -12 -5 -3 -8 -5 -2 -9 -3 -4 -15 -4 -6 -5 -8 -4 -15 -4 -6 -8 -7 -12 -5 -3 -3 -5 -4 -6 -15 -6 -9 -9 -12 -5 -5 -4 -4 -7 -7 -12 -5 -8 -8 -10 -9 -13 -4 -6 -5 -6 -12 -12 -12 -7 -15 -4 -15 -7 -7 -3 -13 -4 -13 -12 -4 -8 -10 -10 -8 -3 -8 -6 -3 -4 -8 -6 -7 -7 -9 -10 -7 -9 -5 -10 -7 -3 -9 -2 -9 -10 -12 -12 -7 -7 -12 -6 -4 -8 -5 -3 -7 -7 -6 -7 -10 -7 -4 -11 -8 -3 -4 -5 -6 -2 -7 -7 -12 -5 -8 -15 -14 -9 -7 -3 -6 -14 -4 -9 -4 -3 -2 -6 -4 -4 -3 -5 -6 -5 -3 -7 -5 -6 -8 -8 -4 -3 -6 -7 -5 -13 -6 -5 -5 -6 -3 -4 -4 -6 -4 -5 -3 -6 -4 -3 -3 -2 -4 -12 -14 -10 -5 -3 -12 -12 -3 -4 -3 -3 -4 -3 -4 -3 -2 -6 -3 -14 
-12 -3 -3 -8 -11 -6 -6 -6 -8 -8 -10 -6 -2 -5 -6 -3 -4 -9 -6 -12 -10 -15 -3 -14 -11 -11 -5 -10 -3 -6 -4 -12 -4 -5 -4 -3 -5 -11 -13 -5 -6 -8 -9 -4 -5 -10 -11 -6 -5 -5 -10 -8 -9 -4 -3 -4 -8 -6 -6 -6 -7 -6 -3 -6 -7 -7 -6 -8 -14 -14 -9 -6 -9 -6 -6 -7 -12 -6 -4 -6 -6 -6 -6 -5 -3 -7 -3 -10 -7 -6 -4 -13 -11 -13 -15 -6 -4 -10 -10 -11 -10 -10 -12 -15 -9 -3 -5 -5 -7 -3 -3 -3 -4 -4 -4 -4 -5 -7 -5 -7 -4 -11 -8 -10 -8 -4 -11 -4 -15 -7 -4 -15 -8 -4 -3 -14 -3 -5 -4 -7 -3 -14 -3 -5 -7 -6 -11 -4 -3 -3 -4 -3 -5 -14 -5 -8 -8 -11 -4 -4 -3 -4 -6 -6 -11 -4 -7 -7 -9 -8 -12 -3 -5 -4 -5 -11 -11 -11 -6 -14 -3 -14 -6 -6 -10 -12 -3 -12 -11 -3 -7 -9 -9 -7 -2 -7 -5 -2 -3 -7 -5 -6 -6 -8 -9 -6 -8 -4 -9 -6 -8 -8 -10 -8 -9 -11 -11 -6 -6 -11 -5 -3 -7 -4 -5 -6 -6 -5 -6 -9 -6 -3 -10 -7 -15 -3 -4 -5 -15 -6 -6 -11 -4 -7 -14 -13 -8 -6 -15 -5 -13 -3 -8 -3 -6 -15 -5 -3 -3 -15 -4 -5 -4 -6 -6 -4 -5 -7 -7 -3 -10 -5 -6 -4 -12 -5 -4 -4 -5 -2 -3 -3 -5 -3 -4 -2 -5 -3 -2 -6 -8 -3 -11 -13 -9 -4 -6 -11 -11 -8 -3 -6 -6 -3 -2 -3 -6 -6 -5 -2 -13 
-11 -5 -2 -7 -10 -5 -5 -5 -7 -7 -9 -5 -8 -4 -5 -6 -3 -8 -5 -11 -9 -14 -5 -13 -10 -10 -4 -9 -5 -5 -3 -11 -3 -4 -3 -6 -4 -10 -12 -4 -5 -7 -8 -3 -4 -9 -10 -5 -4 -4 -9 -7 -8 -3 -8 -3 -7 -5 -5 -5 -6 -5 -10 -5 -6 -6 -5 -7 -13 -13 -8 -5 -8 -5 -5 -6 -11 -5 -3 -5 -5 -5 -5 -4 -8 -6 -10 -9 -6 -5 -3 -12 -10 -12 -14 -5 -3 -9 -9 -10 -9 -9 -11 -14 -8 -8 -4 -4 -6 -8 -8 -6 -3 -3 -3 -3 -4 -6 -4 -6 -3 -10 -7 -9 -7 -15 -10 -3 -14 -6 -6 -14 -7 -3 -4 -13 -15 -4 -3 -6 -6 -13 -15 -4 -6 -5 -10 -3 -3 -3 -3 -8 -4 -13 -4 -7 -7 -10 -6 -3 -4 -3 -5 -5 -10 -3 -6 -6 -8 -7 -11 -2 -4 -3 -4 -10 -10 -10 -5 -13 -15 -13 -5 -5 -9 -11 -2 -11 -10 -15 -6 -8 -8 -6 -8 -6 -4 -8 -8 -6 -4 -5 -5 -7 -8 -5 -7 -3 -8 -5 -7 -7 -9 -7 -8 -10 -10 -5 -5 -10 -4 -15 -6 -3 -4 -5 -5 -4 -5 -8 -5 -2 -9 -6 -14 -6 -3 -4 -14 -5 -5 -10 -3 -6 -13 -12 -7 -5 -14 -4 -12 -6 -7 -6 -5 -14 -4 -6 -6 -14 -3 -4 -3 -5 -5 -3 -4 -6 -6 -6 -9 -4 -5 -3 -11 -4 -3 -3 -4 -6 -10 -6 -4 -6 -3 -6 -4 -6 -10 -5 -7 -6 -10 -12 -8 -3 -5 -10 -10 -7 -4 -5 -5 -6 -6 -6 -5 -5 -4 -6 -12 
-10 -4 -10 -6 -9 -4 -4 -4 -6 -6 -8 -4 -7 -3 -4 -5 -6 -7 -4 -10 -8 -13 -4 -12 -9 -9 -3 -8 -4 -4 -10 -10 -5 -3 -4 -5 -3 -9 -11 -3 -4 -6 -7 -8 -3 -8 -9 -4 -3 -3 -8 -6 -7 -15 -7 -10 -6 -10 -4 -4 -5 -4 -9 -4 -5 -5 -4 -6 -12 -12 -7 -4 -7 -4 -4 -5 -10 -4 -6 -4 -4 -4 -4 -3 -7 -5 -9 -8 -5 -4 -8 -11 -9 -11 -13 -4 -10 -8 -8 -9 -8 -8 -10 -13 -7 -7 -3 -3 -5 -7 -7 -5 -4 -6 -5 -5 -3 -5 -10 -5 -6 -9 -6 -8 -6 -14 -9 -6 -13 -5 -5 -13 -6 -4 -3 -12 -14 -3 -10 -5 -5 -12 -14 -3 -5 -4 -9 -5 -3 -3 -8 -7 -3 -12 -3 -6 -6 -9 -5 -6 -3 -4 -4 -4 -9 -8 -5 -5 -7 -6 -10 -10 -3 -10 -3 -9 -9 -9 -4 -12 -14 -12 -4 -4 -8 -10 -15 -10 -9 -14 -5 -7 -7 -5 -7 -5 -8 -7 -7 -5 -3 -4 -4 -6 -7 -4 -6 -10 -7 -4 -6 -6 -8 -6 -7 -9 -9 -4 -4 -9 -3 -14 -5 -10 -3 -4 -4 -3 -4 -7 -4 -10 -8 -5 -13 -5 -15 -3 -13 -4 -4 -9 -2 -5 -12 -11 -6 -4 -13 -3 -11 -5 -6 -5 -4 -13 -3 -5 -5 -13 -6 -6 -6 -4 -4 -8 -3 -5 -5 -5 -8 -3 -4 -6 -10 -3 -8 -8 -3 -5 -9 -5 -3 -5 -10 -5 -3 -5 -9 -4 -6 -5 -9 -11 -7 -8 -4 -9 -9 -6 -3 -4 -4 -5 -5 -5 -4 -4 -3 -5 -11 
-9 -3 -9 -5 -8 -3 -3 -3 -5 -5 -7 -3 -6 -8 -3 -4 -5 -6 -10 -9 -7 -12 -3 -11 -8 -8 -15 -7 -3 -3 -9 -9 -4 -6 -3 -4 -6 -8 -10 -8 -3 -5 -6 -7 -8 -7 -8 -8 -10 -10 -7 -5 -6 -14 -6 -9 -5 -9 -3 -10 -4 -3 -8 -3 -4 -4 -10 -5 -11 -11 -6 -10 -6 -10 -10 -4 -9 -3 -5 -3 -3 -3 -3 -6 -6 -4 -8 -7 -4 -3 -7 -10 -8 -10 -12 -3 -9 -7 -7 -8 -7 -7 -9 -12 -6 -6 -6 -8 -4 -6 -6 -4 -3 -5 -4 -4 -5 -4 -9 -4 -5 -8 -5 -7 -5 -13 -8 -5 -12 -4 -4 -12 -5 -3 -4 -11 -13 -15 -9 -4 -4 -11 -13 -15 -4 -3 -8 -4 -3 -3 -7 -6 -8 -11 -10 -5 -5 -8 -4 -5 -4 -4 -3 -3 -8 -7 -4 -4 -6 -5 -9 -9 -15 -9 -15 -8 -8 -8 -10 -11 -13 -11 -3 -10 -7 -9 -14 -9 -8 -13 -4 -6 -6 -4 -6 -4 -7 -6 -6 -4 -8 -3 -3 -5 -6 -3 -5 -9 -6 -3 -5 -5 -7 -5 -6 -8 -8 -3 -3 -8 -15 -13 -4 -9 -5 -3 -3 -10 -3 -6 -3 -9 -7 -4 -12 -4 -14 -15 -12 -3 -3 -8 -8 -4 -11 -10 -5 -3 -12 -6 -10 -4 -5 -4 -3 -12 -8 -4 -4 -12 -5 -5 -5 -3 -3 -7 -6 -4 -4 -4 -7 -8 -8 -5 -9 -8 -7 -7 -6 -4 -8 -4 -10 -4 -9 -4 -6 -4 -8 -3 -5 -4 -8 -10 -6 -7 -3 -8 -8 -5 -4 -3 -3 -4 -4 -4 -3 -6 -6 -4 -10 
-8 -5 -8 -4 -7 -15 -10 -15 -4 -4 -6 -2 -5 -7 -6 -3 -4 -5 -9 -8 -6 -11 -5 -10 -7 -7 -14 -6 -5 -6 -8 -8 -3 -5 -4 -3 -5 -7 -9 -7 -8 -4 -5 -6 -7 -6 -7 -7 -9 -9 -6 -4 -5 -13 -5 -8 -4 -8 -6 -9 -3 -10 -7 -10 -3 -3 -9 -4 -10 -10 -5 -9 -5 -9 -9 -3 -8 -6 -4 -6 -6 -6 -6 -5 -5 -3 -7 -6 -3 -10 -6 -9 -7 -9 -11 -10 -8 -6 -6 -7 -6 -6 -8 -11 -5 -5 -5 -7 -3 -5 -5 -3 -4 -4 -3 -3 -4 -3 -8 -3 -4 -7 -4 -6 -4 -12 -7 -4 -11 -3 -3 -11 -4 -4 -3 -10 -12 -14 -8 -3 -3 -10 -12 -14 -3 -10 -7 -3 -3 -3 -6 -5 -7 -10 -9 -4 -4 -7 -6 -4 -3 -3 -15 -15 -7 -6 -3 -3 -5 -4 -8 -8 -14 -8 -14 -7 -7 -7 -9 -10 -12 -10 -10 -9 -6 -8 -13 -8 -7 -12 -3 -5 -5 -3 -5 -3 -6 -5 -5 -3 -7 -10 -10 -4 -5 -2 -4 -8 -5 -2 -4 -4 -6 -4 -5 -7 -7 -10 -10 -7 -14 -12 -3 -8 -4 -10 -10 -9 -10 -5 -2 -8 -6 -3 -11 -3 -13 -14 -11 -15 -2 -7 -7 -3 -10 -9 -4 -8 -11 -5 -9 -3 -4 -3 -6 -11 -7 -3 -3 -11 -4 -4 -4 -6 -10 -6 -5 -3 -3 -3 -6 -7 -7 -4 -8 -7 -6 -6 -5 -3 -7 -3 -9 -3 -8 -3 -5 -3 -7 -6 -4 -3 -7 -9 -5 -6 -6 -7 -7 -4 -3 -6 -6 -3 -3 -3 -6 -5 -5 -3 -9 
-7 -4 -7 -3 -6 -14 -9 -14 -3 -3 -5 -10 -4 -6 -5 -6 -3 -4 -8 -7 -5 -10 -4 -9 -6 -6 -13 -5 -4 -5 -7 -7 -5 -4 -3 -6 -4 -6 -8 -6 -7 -3 -4 -5 -6 -5 -6 -6 -8 -8 -5 -3 -4 -12 -4 -7 -3 -7 -5 -8 -2 -9 -6 -9 -10 -10 -8 -3 -9 -9 -4 -8 -4 -8 -8 -2 -7 -5 -3 -5 -5 -5 -5 -4 -4 -2 -6 -5 -10 -9 -5 -8 -6 -8 -10 -9 -7 -5 -5 -6 -5 -5 -7 -10 -4 -4 -4 -6 -8 -4 -4 -6 -3 -3 -5 -5 -3 -10 -7 -10 -3 -6 -3 -5 -3 -11 -6 -3 -10 -2 -6 -10 -3 -3 -4 -9 -11 -13 -7 -8 -6 -9 -11 -13 -2 -9 -6 -5 -3 -3 -5 -4 -6 -9 -8 -3 -3 -6 -5 -3 -4 -4 -14 -14 -6 -5 -2 -8 -4 -3 -7 -7 -13 -7 -13 -6 -6 -6 -8 -9 -11 -9 -9 -8 -5 -7 -12 -7 -6 -11 -15 -4 -4 -10 -4 -8 -5 -4 -4 -8 -6 -9 -9 -3 -4 -10 -3 -7 -4 -10 -3 -3 -5 -3 -4 -6 -6 -9 -9 -6 -13 -11 -2 -7 -3 -9 -9 -8 -9 -4 -10 -7 -5 -2 -10 -6 -12 -13 -10 -14 -10 -6 -6 -10 -9 -8 -3 -7 -10 -4 -8 -6 -3 -6 -5 -10 -6 -6 -6 -10 -3 -3 -3 -5 -9 -5 -4 -2 -2 -6 -5 -6 -6 -3 -7 -6 -5 -5 -4 -6 -6 -6 -8 -6 -7 -6 -4 -6 -6 -5 -3 -6 -6 -8 -4 -5 -5 -6 -6 -3 -4 -5 -5 -6 -6 -6 -5 -4 -4 -6 -8 
-6 -3 -6 -2 -5 -13 -8 -13 -10 -10 -4 -9 -3 -5 -4 -5 -2 -3 -7 -6 -4 -9 -3 -8 -5 -5 -12 -4 -3 -4 -6 -6 -4 -3 -4 -5 -3 -5 -7 -5 -6 -15 -3 -4 -5 -4 -5 -5 -7 -7 -4 -10 -3 -11 -3 -6 -10 -6 -4 -7 -15 -8 -5 -8 -9 -9 -7 -10 -8 -8 -3 -7 -3 -7 -7 -10 -6 -4 -6 -4 -4 -4 -4 -3 -3 -8 -5 -4 -9 -8 -4 -7 -5 -7 -9 -8 -6 -4 -4 -5 -4 -4 -6 -9 -3 -3 -3 -5 -7 -3 -8 -5 -4 -6 -4 -4 -5 -9 -6 -9 -6 -5 -10 -4 -15 -10 -5 -6 -9 -8 -5 -9 -10 -4 -3 -8 -10 -12 -6 -7 -5 -8 -10 -12 -8 -8 -5 -4 -3 -3 -4 -3 -5 -8 -7 -10 -15 -5 -4 -6 -3 -3 -13 -13 -5 -4 -15 -7 -3 -10 -6 -6 -12 -6 -12 -5 -5 -5 -7 -8 -10 -8 -8 -7 -4 -6 -11 -6 -5 -10 -14 -3 -3 -9 -3 -7 -4 -3 -3 -7 -5 -8 -8 -2 -3 -9 -2 -6 -3 -9 -8 -10 -4 -10 -3 -5 -5 -8 -8 -5 -12 -10 -8 -6 -5 -8 -8 -7 -8 -3 -9 -6 -4 -15 -9 -5 -11 -12 -9 -13 -9 -5 -5 -9 -8 -7 -10 -6 -9 -3 -7 -5 -15 -5 -4 -9 -5 -5 -5 -9 -6 -6 -6 -4 -8 -4 -3 -15 -15 -5 -4 -5 -5 -6 -6 -5 -4 -4 -3 -5 -5 -5 -7 -5 -6 -5 -3 -5 -5 -4 -8 -5 -5 -7 -3 -4 -4 -5 -5 -8 -3 -4 -4 -5 -5 -5 -4 -3 -3 -5 -7 
-5 -5 -5 -10 -4 -12 -7 -12 -9 -9 -3 -8 -8 -4 -3 -4 -6 -10 -6 -5 -3 -8 -5 -7 -4 -4 -11 -3 -5 -3 -5 -5 -3 -6 -3 -4 -6 -4 -6 -4 -5 -14 -2 -3 -4 -3 -4 -4 -6 -6 -3 -9 -10 -10 -8 -5 -9 -5 -3 -6 -14 -7 -4 -7 -8 -8 -6 -9 -7 -7 -10 -6 -10 -6 -6 -9 -5 -3 -5 -3 -3 -3 -3 -6 -8 -7 -4 -3 -8 -7 -3 -6 -4 -6 -8 -7 -5 -3 -3 -4 -3 -3 -5 -8 -15 -8 -6 -4 -6 -8 -7 -4 -3 -5 -3 -3 -4 -8 -5 -8 -5 -4 -9 -3 -14 -9 -4 -5 -8 -7 -4 -8 -9 -3 -4 -7 -9 -11 -5 -6 -4 -7 -9 -11 -7 -7 -4 -5 -3 -3 -3 -8 -4 -7 -6 -9 -14 -4 -6 -5 -4 -4 -12 -12 -4 -3 -14 -6 -10 -9 -5 -5 -11 -5 -11 -4 -4 -4 -6 -7 -9 -7 -7 -6 -3 -5 -10 -5 -4 -9 -13 -15 -10 -8 -8 -6 -3 -8 -8 -6 -4 -7 -7 -10 -10 -8 -10 -5 -10 -8 -7 -9 -3 -9 -15 -4 -4 -7 -7 -4 -11 -9 -7 -5 -4 -7 -7 -6 -7 -10 -8 -5 -3 -14 -8 -4 -10 -11 -8 -12 -8 -4 -4 -8 -7 -6 -9 -5 -8 -6 -6 -4 -14 -4 -3 -8 -4 -4 -4 -8 -5 -5 -5 -3 -7 -3 -6 -14 -14 -4 -3 -4 -4 -5 -5 -4 -3 -3 -6 -4 -4 -4 -6 -4 -5 -4 -6 -4 -4 -3 -7 -4 -4 -6 -2 -3 -3 -4 -4 -7 -4 -3 -3 -4 -4 -4 -3 -6 -6 -4 -6 
-4 -4 -4 -9 -3 -11 -6 -11 -8 -8 -2 -7 -7 -3 -6 -3 -5 -9 -5 -4 -10 -7 -4 -6 -3 -3 -10 -15 -4 -6 -4 -4 -5 -5 -4 -3 -5 -3 -5 -3 -4 -13 -15 -8 -3 -15 -3 -3 -5 -5 -10 -8 -9 -9 -7 -4 -8 -4 -6 -5 -13 -6 -3 -6 -7 -7 -5 -8 -6 -6 -9 -5 -9 -5 -5 -8 -4 -6 -4 -6 -6 -6 -6 -5 -7 -6 -3 -15 -7 -6 -8 -5 -3 -5 -7 -6 -4 -10 -10 -3 -10 -15 -4 -7 -14 -7 -5 -3 -5 -7 -6 -3 -4 -4 -5 -5 -3 -7 -4 -7 -4 -3 -8 -10 -13 -8 -3 -4 -7 -6 -6 -7 -8 -4 -3 -6 -8 -10 -4 -5 -3 -6 -8 -10 -6 -6 -3 -4 -3 -3 -8 -7 -3 -6 -5 -8 -13 -3 -5 -4 -3 -3 -11 -11 -3 -8 -13 -5 -9 -8 -4 -4 -10 -4 -10 -3 -3 -3 -5 -6 -8 -6 -6 -5 -10 -4 -9 -4 -3 -8 -12 -14 -9 -7 -7 -5 -8 -7 -7 -5 -3 -6 -6 -9 -9 -7 -9 -4 -9 -7 -6 -8 -2 -8 -14 -3 -3 -6 -6 -3 -10 -8 -6 -4 -3 -6 -6 -5 -6 -9 -7 -4 -15 -13 -7 -3 -9 -10 -7 -11 -7 -3 -3 -7 -6 -5 -8 -4 -7 -5 -5 -3 -13 -3 -6 -7 -3 -3 -3 -7 -4 -4 -4 -6 -6 -8 -5 -13 -13 -3 -10 -3 -3 -4 -4 -3 -8 -8 -5 -3 -3 -3 -5 -3 -4 -3 -5 -3 -3 -6 -6 -3 -3 -5 -15 -8 -6 -3 -3 -6 -3 -6 -6 -3 -3 -3 -6 -5 -5 -3 -5 
-3 -3 -3 -8 -2 -10 -5 -10 -7 -7 -10 -6 -6 -2 -5 -2 -4 -8 -4 -3 -9 -6 -3 -5 -15 -15 -9 -14 -3 -5 -3 -3 -4 -4 -3 -6 -4 -15 -4 -8 -3 -12 -14 -7 -8 -14 -15 -8 -4 -4 -9 -7 -8 -8 -6 -3 -7 -3 -5 -4 -12 -5 -10 -5 -6 -6 -4 -7 -5 -5 -8 -4 -8 -4 -4 -7 -3 -5 -6 -5 -5 -5 -5 -4 -6 -5 -10 -14 -6 -5 -7 -4 -15 -4 -6 -5 -3 -9 -9 -15 -9 -14 -3 -6 -13 -6 -4 -2 -4 -6 -5 -6 -3 -3 -4 -4 -5 -6 -3 -6 -3 -15 -7 -9 -12 -7 -15 -3 -6 -5 -5 -6 -7 -3 -4 -5 -7 -9 -3 -4 -6 -5 -7 -9 -5 -5 -15 -3 -3 -3 -7 -6 -2 -5 -4 -7 -12 -2 -4 -3 -4 -4 -10 -10 -15 -7 -12 -4 -8 -7 -3 -3 -9 -3 -9 -15 -15 -15 -4 -5 -7 -5 -5 -4 -9 -3 -8 -3 -15 -7 -11 -13 -8 -6 -6 -4 -7 -6 -6 -4 -2 -5 -5 -8 -8 -6 -8 -3 -8 -6 -5 -7 -10 -7 -13 -15 -2 -5 -5 -15 -9 -7 -5 -3 -5 -5 -5 -4 -5 -8 -6 -3 -14 -12 -6 -6 -8 -9 -6 -10 -6 -2 -8 -6 -5 -4 -7 -3 -6 -4 -4 -6 -12 -6 -5 -6 -8 -6 -6 -6 -3 -3 -3 -5 -5 -7 -4 -12 -12 -6 -9 -8 -8 -3 -3 -2 -7 -7 -4 -2 -2 -2 -4 -6 -3 -2 -4 -6 -2 -5 -5 -6 -15 -4 -14 -7 -5 -15 -15 -5 -4 -5 -5 -2 -2 -6 -5 -4 -4 -2 -4 
-2 -2 -10 -7 -15 -9 -4 -9 -6 -6 -9 -5 -5 -8 -4 -6 -3 -7 -3 -15 -8 -5 -2 -4 -14 -14 -8 -13 -2 -4 -10 -15 -3 -3 -2 -5 -3 -14 -3 -7 -2 -11 -13 -6 -7 -13 -14 -7 -3 -3 -8 -6 -7 -7 -5 -10 -6 -10 -4 -3 -11 -4 -9 -4 -5 -5 -3 -6 -4 -4 -7 -3 -7 -3 -3 -6 -15 -4 -5 -4 -4 -4 -4 -3 -5 -4 -9 -13 -5 -4 -6 -3 -14 -3 -5 -4 -10 -8 -8 -14 -8 -13 -2 -5 -12 -5 -3 -8 -3 -5 -4 -5 -4 -6 -3 -3 -4 -5 -10 -5 -6 -14 -6 -8 -11 -6 -14 -2 -5 -4 -4 -5 -6 -4 -3 -4 -6 -8 -10 -3 -5 -4 -6 -8 -4 -4 -14 -5 -3 -3 -6 -5 -8 -4 -3 -6 -11 -15 -3 -2 -3 -3 -9 -9 -14 -6 -11 -3 -7 -6 -15 -2 -8 -2 -8 -14 -14 -14 -3 -4 -6 -4 -4 -3 -8 -2 -7 -2 -14 -6 -10 -12 -7 -5 -5 -3 -6 -5 -5 -3 -8 -4 -4 -7 -7 -5 -7 -10 -7 -5 -4 -6 -9 -6 -12 -14 -15 -4 -4 -14 -8 -6 -4 -10 -4 -4 -4 -3 -4 -7 -5 -2 -13 -11 -5 -5 -7 -8 -5 -9 -5 -15 -7 -5 -4 -3 -6 -8 -5 -3 -3 -5 -11 -5 -4 -5 -7 -5 -5 -5 -6 -6 -6 -4 -4 -6 -3 -11 -11 -5 -8 -7 -7 -6 -15 -8 -6 -6 -3 -6 -10 -6 -3 -5 -2 -6 -3 -5 -10 -4 -4 -5 -14 -3 -13 -6 -4 -14 -14 -4 -3 -4 -4 -6 -6 -5 -4 -3 -3 -6 -3 
-15 -5 -9 -6 -14 -8 -3 -8 -5 -5 -8 -4 -4 -7 -3 -5 -2 -6 -10 -14 -7 -4 -5 -3 -13 -13 -7 -12 -5 -3 -9 -14 -5 -6 -4 -4 -6 -13 -15 -6 -8 -10 -12 -5 -6 -12 -13 -6 -10 -10 -7 -5 -6 -6 -4 -9 -5 -9 -3 -10 -10 -3 -8 -3 -4 -4 -10 -5 -3 -3 -6 -10 -6 -10 -10 -5 -14 -3 -4 -3 -3 -3 -3 -6 -4 -3 -8 -12 -4 -3 -5 -15 -13 -15 -4 -3 -9 -7 -7 -13 -7 -12 -15 -4 -11 -4 -6 -7 -8 -4 -3 -4 -3 -5 -5 -5 -3 -4 -9 -4 -5 -13 -5 -7 -10 -5 -13 -6 -4 -3 -3 -4 -5 -3 -4 -3 -5 -7 -9 -8 -4 -3 -5 -7 -3 -3 -13 -4 -3 -3 -5 -4 -7 -3 -10 -5 -10 -14 -6 -6 -4 -4 -8 -8 -13 -5 -10 -8 -6 -5 -14 -10 -7 -10 -7 -13 -13 -13 -10 -3 -5 -3 -3 -10 -7 -15 -6 -15 -13 -5 -9 -11 -6 -4 -4 -8 -5 -4 -4 -8 -7 -3 -3 -6 -6 -4 -6 -9 -6 -4 -3 -5 -8 -5 -11 -13 -14 -3 -3 -13 -7 -5 -3 -9 -3 -3 -3 -10 -3 -6 -4 -10 -12 -10 -4 -4 -6 -7 -4 -8 -4 -14 -6 -4 -15 -15 -5 -7 -4 -2 -2 -4 -10 -4 -3 -4 -6 -4 -4 -4 -5 -5 -5 -3 -3 -5 -2 -10 -10 -4 -7 -6 -6 -5 -14 -7 -5 -5 -2 -5 -9 -5 -2 -4 -10 -5 -2 -4 -9 -3 -3 -4 -13 -15 -12 -5 -3 -13 -13 -3 -4 -3 -3 -5 -5 -4 -3 -6 -2 -5 -2 
-14 -4 -8 -5 -13 -7 -10 -7 -4 -4 -7 -3 -3 -6 -2 -4 -6 -5 -9 -13 -6 -3 -4 -15 -12 -12 -6 -11 -4 -6 -8 -13 -4 -5 -3 -3 -5 -12 -14 -5 -7 -9 -11 -4 -5 -11 -12 -5 -9 -9 -6 -4 -5 -5 -3 -8 -4 -8 -6 -9 -9 -10 -7 -10 -3 -3 -9 -4 -15 -15 -5 -9 -5 -9 -9 -4 -13 -6 -3 -6 -6 -6 -6 -5 -3 -8 -7 -11 -3 -10 -4 -14 -12 -14 -3 -10 -8 -6 -6 -12 -6 -11 -14 -3 -10 -8 -5 -6 -7 -3 -2 -3 -2 -4 -4 -4 -5 -3 -8 -3 -4 -12 -4 -6 -9 -4 -12 -5 -3 -8 -6 -3 -4 -4 -3 -15 -4 -6 -8 -7 -3 -15 -4 -6 -8 -10 -12 -3 -3 -3 -4 -3 -6 -15 -9 -4 -9 -13 -5 -5 -3 -3 -7 -7 -12 -4 -9 -7 -5 -4 -13 -9 -6 -9 -6 -12 -12 -12 -9 -15 -4 -15 -10 -9 -6 -14 -5 -14 -12 -4 -8 -10 -5 -3 -3 -7 -4 -3 -3 -7 -6 -2 -2 -5 -5 -3 -5 -8 -5 -3 -2 -4 -7 -4 -10 -12 -13 -2 -2 -12 -6 -4 -8 -8 -5 -2 -2 -9 -2 -5 -3 -9 -11 -9 -3 -3 -5 -6 -3 -7 -3 -13 -5 -3 -14 -14 -4 -6 -3 -6 -15 -3 -9 -3 -6 -3 -5 -3 -3 -3 -4 -4 -4 -6 -10 -4 -6 -9 -9 -3 -6 -5 -5 -4 -13 -6 -4 -4 -6 -4 -8 -4 -10 -3 -9 -4 -6 -3 -8 -6 -8 -3 -12 -14 -11 -4 -6 -12 -12 -8 -3 -6 -6 -4 -4 -3 -6 -5 -6 -4 -15 
-13 -3 -7 -4 -12 -6 -9 -6 -3 -3 -6 -10 -2 -5 -6 -3 -5 -4 -8 -12 -5 -15 -3 -14 -11 -11 -5 -10 -3 -5 -7 -12 -3 -4 -4 -6 -4 -11 -13 -4 -6 -8 -10 -3 -4 -10 -11 -4 -8 -8 -5 -3 -4 -4 -8 -7 -3 -7 -5 -8 -8 -9 -6 -9 -2 -10 -8 -3 -14 -14 -4 -8 -4 -8 -8 -3 -12 -5 -2 -5 -5 -5 -5 -4 -2 -7 -6 -10 -10 -9 -3 -13 -11 -13 -15 -9 -7 -5 -5 -11 -5 -10 -13 -15 -9 -7 -4 -5 -6 -8 -8 -6 -4 -6 -3 -3 -4 -10 -7 -10 -3 -11 -3 -5 -8 -3 -11 -4 -15 -7 -5 -2 -3 -3 -4 -14 -3 -5 -7 -6 -6 -14 -3 -5 -7 -9 -11 -5 -3 -3 -3 -8 -5 -14 -8 -3 -8 -12 -4 -4 -4 -4 -6 -6 -11 -3 -8 -6 -4 -3 -12 -8 -5 -8 -5 -11 -11 -11 -8 -14 -3 -14 -9 -8 -5 -13 -4 -13 -11 -3 -7 -9 -4 -2 -2 -6 -3 -2 -2 -6 -5 -10 -10 -4 -4 -2 -4 -7 -4 -10 -8 -3 -6 -3 -9 -11 -12 -10 -10 -11 -5 -3 -7 -7 -4 -10 -10 -8 -10 -4 -2 -8 -10 -8 -2 -6 -4 -5 -15 -6 -2 -12 -4 -2 -13 -13 -3 -5 -2 -5 -14 -6 -8 -6 -5 -2 -4 -6 -6 -2 -3 -3 -3 -5 -9 -3 -5 -8 -8 -6 -5 -4 -4 -3 -12 -5 -3 -3 -5 -3 -7 -3 -9 -6 -8 -3 -5 -6 -7 -5 -7 -6 -11 -13 -10 -3 -5 -11 -11 -7 -4 -5 -5 -3 -3 -6 -5 -4 -5 -3 -14 
-12 -5 -6 -3 -11 -5 -8 -5 -2 -2 -5 -9 -8 -4 -5 -2 -4 -3 -7 -11 -4 -14 -5 -13 -10 -10 -4 -9 -5 -4 -6 -11 -2 -3 -3 -5 -3 -10 -12 -3 -5 -7 -9 -8 -3 -9 -10 -3 -7 -7 -4 -10 -3 -3 -7 -6 -10 -6 -4 -7 -7 -8 -5 -8 -10 -9 -7 -10 -13 -13 -3 -7 -3 -7 -7 -10 -11 -4 -6 -4 -4 -4 -4 -3 -8 -6 -5 -9 -9 -8 -8 -12 -10 -12 -14 -8 -6 -4 -4 -10 -4 -9 -12 -14 -8 -6 -3 -4 -5 -7 -7 -5 -3 -5 -5 -5 -3 -9 -6 -9 -6 -10 -10 -4 -7 -15 -10 -6 -14 -6 -4 -15 -2 -2 -3 -13 -15 -4 -6 -5 -5 -13 -15 -4 -6 -8 -10 -4 -2 -2 -2 -7 -4 -13 -7 -10 -7 -11 -3 -3 -3 -3 -5 -5 -10 -8 -7 -5 -3 -10 -11 -7 -4 -7 -4 -10 -10 -10 -7 -13 -15 -13 -8 -7 -4 -12 -3 -12 -10 -15 -6 -8 -3 -10 -8 -5 -8 -8 -8 -5 -4 -9 -9 -3 -3 -10 -3 -6 -3 -9 -7 -2 -5 -2 -8 -10 -11 -9 -9 -10 -4 -15 -6 -6 -3 -9 -9 -7 -9 -3 -10 -7 -9 -7 -15 -5 -3 -4 -14 -5 -10 -11 -3 -10 -12 -12 -10 -4 -15 -4 -13 -5 -7 -5 -4 -15 -3 -5 -5 -15 -2 -2 -2 -4 -8 -2 -4 -7 -7 -5 -4 -3 -3 -6 -11 -4 -8 -8 -4 -2 -6 -2 -8 -5 -7 -2 -4 -5 -6 -4 -6 -5 -10 -12 -9 -8 -4 -10 -10 -6 -3 -4 -4 -2 -2 -5 -4 -3 -4 -2 -13 
-11 -4 -5 -2 -10 -4 -7 -4 -10 -10 -4 -8 -7 -3 -4 -6 -3 -10 -6 -10 -3 -13 -4 -12 -9 -9 -3 -8 -4 -3 -5 -10 -5 -6 -4 -4 -6 -9 -11 -8 -4 -6 -8 -7 -8 -8 -9 -8 -6 -6 -3 -9 -10 -15 -6 -5 -9 -5 -3 -6 -6 -7 -4 -7 -9 -8 -6 -9 -12 -12 -10 -6 -10 -6 -6 -9 -10 -3 -5 -3 -3 -3 -3 -6 -7 -5 -4 -8 -8 -7 -7 -11 -9 -11 -13 -7 -5 -3 -3 -9 -3 -8 -11 -13 -7 -5 -6 -3 -4 -6 -6 -4 -4 -4 -4 -4 -2 -8 -5 -8 -5 -9 -9 -3 -6 -14 -9 -5 -13 -5 -3 -14 -10 -4 -4 -12 -14 -3 -5 -4 -4 -12 -14 -3 -5 -7 -9 -3 -3 -3 -8 -6 -3 -12 -6 -9 -6 -10 -6 -6 -4 -4 -4 -4 -9 -7 -6 -4 -10 -9 -10 -6 -3 -6 -3 -9 -9 -9 -6 -12 -14 -12 -7 -6 -3 -11 -15 -11 -9 -14 -5 -7 -10 -9 -7 -4 -7 -7 -7 -4 -3 -8 -8 -2 -2 -9 -2 -5 -2 -8 -6 -10 -4 -10 -7 -9 -10 -8 -8 -9 -3 -14 -5 -5 -5 -8 -8 -6 -8 -2 -9 -6 -8 -6 -14 -4 -15 -3 -13 -4 -9 -10 -8 -9 -11 -11 -9 -3 -14 -3 -12 -4 -6 -4 -3 -14 -8 -4 -4 -14 -6 -6 -6 -3 -7 -8 -3 -6 -6 -4 -3 -8 -8 -5 -10 -3 -7 -7 -3 -6 -5 -6 -7 -4 -6 -6 -3 -4 -5 -3 -5 -4 -9 -11 -8 -7 -3 -9 -9 -5 -4 -3 -3 -6 -6 -4 -3 -6 -3 -6 -12 
-10 -3 -4 -10 -9 -3 -6 -3 -9 -9 -3 -7 -6 -8 -3 -5 -2 -9 -5 -9 -2 -12 -3 -11 -8 -8 -15 -7 -3 -6 -4 -9 -4 -5 -3 -3 -5 -8 -10 -7 -3 -5 -7 -6 -7 -7 -8 -7 -5 -5 -10 -8 -9 -14 -5 -4 -8 -4 -2 -5 -5 -6 -3 -6 -8 -7 -5 -8 -11 -11 -9 -5 -9 -5 -5 -8 -9 -6 -4 -6 -6 -6 -6 -5 -6 -4 -3 -7 -7 -6 -6 -10 -8 -10 -12 -6 -4 -10 -10 -8 -10 -7 -10 -12 -6 -4 -5 -8 -3 -5 -5 -3 -3 -3 -3 -3 -5 -7 -4 -7 -4 -8 -8 -10 -5 -13 -8 -4 -12 -4 -6 -13 -9 -3 -3 -11 -13 -15 -4 -3 -3 -11 -13 -15 -4 -6 -8 -5 -3 -3 -7 -5 -8 -11 -5 -8 -5 -9 -5 -5 -3 -3 -3 -3 -8 -6 -5 -3 -9 -8 -9 -5 -15 -5 -15 -8 -8 -8 -5 -11 -13 -11 -6 -5 -10 -10 -14 -10 -8 -13 -4 -6 -9 -8 -6 -3 -6 -6 -6 -3 -8 -7 -7 -10 -10 -8 -10 -4 -10 -7 -5 -9 -3 -9 -6 -8 -9 -7 -7 -8 -15 -13 -4 -4 -4 -7 -7 -5 -7 -10 -8 -5 -7 -5 -13 -3 -14 -2 -12 -3 -8 -9 -7 -8 -10 -10 -8 -8 -13 -6 -11 -3 -5 -3 -6 -13 -7 -3 -3 -13 -5 -5 -5 -6 -6 -7 -6 -5 -5 -3 -10 -7 -7 -4 -9 -8 -6 -6 -2 -5 -4 -5 -6 -3 -5 -5 -2 -3 -4 -6 -4 -3 -8 -10 -7 -6 -6 -8 -8 -4 -3 -6 -6 -5 -5 -3 -6 -5 -6 -5 -11 
-9 -5 -3 -9 -8 -15 -5 -15 -8 -8 -2 -6 -5 -7 -6 -4 -6 -8 -4 -8 -10 -11 -5 -10 -7 -7 -14 -6 -5 -5 -3 -8 -3 -4 -4 -6 -4 -7 -9 -6 -8 -4 -6 -5 -6 -6 -7 -6 -4 -4 -9 -7 -8 -13 -4 -3 -7 -3 -6 -4 -4 -5 -10 -5 -7 -6 -4 -7 -10 -10 -8 -4 -8 -4 -4 -7 -8 -5 -3 -5 -5 -5 -5 -4 -5 -3 -10 -6 -6 -5 -5 -9 -7 -9 -11 -5 -3 -9 -9 -7 -9 -6 -9 -11 -5 -3 -4 -7 -8 -4 -4 -6 -4 -6 -5 -5 -4 -6 -3 -6 -3 -7 -7 -9 -4 -12 -7 -3 -11 -8 -5 -12 -8 -4 -4 -10 -12 -14 -3 -8 -6 -10 -12 -14 -3 -5 -7 -4 -3 -3 -6 -4 -7 -10 -4 -7 -4 -8 -4 -4 -4 -4 -15 -15 -7 -5 -4 -8 -8 -7 -8 -4 -14 -4 -14 -7 -7 -7 -4 -10 -12 -10 -5 -4 -9 -9 -13 -9 -7 -12 -3 -5 -8 -7 -5 -8 -5 -5 -5 -8 -7 -6 -6 -9 -9 -7 -9 -3 -9 -6 -4 -8 -2 -8 -5 -7 -8 -6 -6 -7 -14 -12 -3 -3 -3 -6 -6 -4 -6 -9 -7 -4 -6 -4 -12 -6 -13 -15 -11 -2 -7 -8 -6 -7 -9 -9 -7 -7 -12 -5 -10 -6 -4 -6 -5 -12 -6 -6 -6 -12 -4 -4 -4 -5 -5 -6 -5 -4 -4 -6 -9 -6 -6 -3 -8 -7 -5 -5 -6 -4 -3 -4 -5 -6 -4 -4 -6 -6 -3 -5 -3 -6 -7 -9 -6 -5 -5 -7 -7 -3 -4 -5 -5 -4 -4 -6 -5 -4 -5 -4 -10 
-8 -4 -10 -8 -7 -14 -4 -14 -7 -7 -10 -5 -4 -6 -5 -3 -5 -7 -3 -7 -9 -10 -4 -9 -6 -6 -13 -5 -4 -4 -10 -7 -5 -3 -3 -5 -3 -6 -8 -5 -7 -15 -5 -4 -5 -5 -6 -5 -3 -3 -8 -6 -7 -12 -3 -10 -6 -10 -5 -3 -3 -4 -9 -4 -6 -5 -10 -6 -9 -9 -7 -10 -7 -10 -10 -6 -7 -4 -6 -6 -4 -4 -4 -6 -4 -8 -9 -5 -5 -4 -4 -8 -6 -8 -10 -4 -10 -8 -8 -6 -8 -5 -8 -10 -4 -8 -3 -6 -7 -3 -3 -5 -3 -5 -4 -4 -3 -5 -10 -5 -6 -6 -6 -8 -3 -11 -6 -6 -10 -7 -4 -11 -7 -4 -3 -9 -11 -13 -10 -7 -5 -9 -11 -13 -8 -4 -6 -5 -3 -3 -5 -3 -6 -9 -3 -6 -3 -7 -6 -6 -4 -4 -14 -14 -6 -4 -3 -7 -7 -6 -7 -3 -13 -3 -13 -6 -6 -6 -3 -9 -11 -9 -4 -10 -8 -8 -12 -8 -6 -11 -15 -4 -7 -6 -4 -7 -4 -4 -4 -7 -6 -5 -5 -8 -8 -6 -8 -10 -8 -5 -8 -7 -10 -7 -4 -6 -7 -5 -5 -6 -13 -11 -8 -10 -5 -5 -5 -10 -5 -8 -6 -3 -5 -3 -11 -5 -12 -14 -10 -15 -6 -7 -5 -6 -8 -8 -6 -6 -11 -4 -9 -5 -3 -5 -4 -11 -5 -5 -5 -11 -3 -3 -3 -4 -4 -5 -4 -3 -3 -5 -8 -5 -5 -6 -7 -6 -4 -4 -5 -3 -10 -3 -4 -5 -3 -3 -5 -5 -10 -4 -8 -5 -6 -8 -5 -4 -4 -6 -6 -8 -4 -4 -4 -3 -6 -5 -4 -6 -4 -3 -9 
-7 -3 -9 -7 -6 -13 -10 -13 -6 -6 -9 -4 -3 -5 -4 -6 -4 -6 -10 -6 -8 -9 -3 -8 -5 -5 -12 -4 -3 -3 -9 -6 -4 -6 -4 -4 -6 -5 -7 -4 -6 -14 -4 -3 -4 -4 -5 -4 -10 -10 -7 -5 -6 -11 -8 -9 -5 -9 -4 -10 -15 -3 -8 -3 -5 -4 -9 -5 -8 -8 -6 -9 -6 -9 -9 -5 -6 -3 -5 -5 -3 -3 -3 -5 -3 -7 -8 -4 -4 -3 -3 -7 -5 -7 -9 -10 -9 -7 -7 -5 -7 -4 -7 -9 -3 -7 -6 -5 -6 -8 -8 -4 -4 -4 -3 -5 -5 -4 -9 -4 -5 -5 -5 -7 -15 -10 -5 -5 -9 -6 -6 -10 -6 -3 -4 -8 -10 -12 -9 -6 -4 -8 -10 -12 -7 -3 -5 -4 -3 -3 -4 -8 -5 -8 -10 -5 -15 -6 -5 -5 -3 -3 -13 -13 -5 -3 -15 -6 -6 -5 -6 -10 -12 -10 -12 -5 -5 -5 -10 -8 -10 -8 -3 -9 -7 -7 -11 -7 -5 -10 -14 -3 -6 -5 -3 -6 -3 -3 -3 -6 -5 -4 -4 -7 -7 -5 -7 -9 -7 -4 -7 -6 -9 -6 -3 -5 -6 -4 -4 -5 -12 -10 -7 -9 -4 -4 -4 -9 -4 -7 -5 -10 -4 -15 -10 -4 -11 -13 -9 -14 -5 -6 -4 -5 -7 -7 -5 -5 -10 -3 -8 -4 -15 -4 -3 -10 -4 -4 -4 -10 -6 -6 -6 -3 -3 -4 -3 -15 -15 -4 -7 -4 -4 -5 -6 -5 -3 -3 -4 -6 -9 -6 -10 -4 -10 -6 -4 -4 -9 -3 -7 -4 -5 -7 -4 -3 -6 -5 -5 -7 -3 -6 -3 -6 -5 -4 -3 -5 -3 -6 -8 
-6 -5 -8 -6 -5 -12 -9 -12 -5 -5 -8 -3 -8 -4 -3 -5 -3 -5 -9 -5 -7 -8 -5 -7 -4 -4 -11 -3 -5 -6 -8 -5 -3 -5 -3 -3 -5 -4 -6 -3 -5 -13 -3 -8 -3 -3 -4 -3 -9 -9 -6 -4 -5 -10 -7 -8 -4 -8 -6 -9 -14 -10 -7 -10 -4 -3 -8 -4 -7 -7 -5 -8 -5 -8 -8 -4 -5 -6 -4 -4 -6 -6 -6 -4 -8 -6 -7 -15 -10 -10 -8 -6 -4 -6 -8 -9 -8 -6 -6 -4 -6 -3 -6 -8 -15 -6 -5 -4 -5 -7 -7 -3 -3 -3 -5 -4 -4 -3 -8 -3 -4 -4 -4 -6 -14 -9 -4 -4 -8 -5 -5 -9 -5 -4 -3 -7 -9 -11 -8 -5 -3 -7 -9 -11 -6 -10 -4 -3 -3 -3 -3 -7 -4 -7 -9 -4 -14 -5 -4 -4 -4 -4 -12 -12 -4 -8 -14 -5 -5 -4 -5 -9 -11 -9 -11 -4 -4 -4 -9 -7 -9 -7 -10 -8 -6 -6 -10 -6 -4 -9 -13 -15 -5 -4 -8 -5 -8 -8 -8 -5 -4 -3 -3 -6 -6 -4 -6 -8 -6 -3 -6 -5 -8 -5 -15 -4 -5 -3 -3 -4 -11 -9 -6 -8 -3 -3 -3 -8 -3 -6 -4 -9 -3 -14 -9 -3 -10 -12 -8 -13 -4 -5 -3 -4 -6 -6 -4 -4 -9 -6 -7 -3 -14 -3 -6 -9 -3 -3 -3 -9 -5 -5 -5 -6 -10 -8 -6 -14 -14 -3 -6 -3 -3 -4 -5 -4 -8 -8 -3 -5 -8 -5 -9 -3 -9 -5 -3 -6 -8 -6 -6 -3 -4 -6 -3 -8 -5 -4 -4 -6 -4 -5 -6 -5 -4 -6 -6 -4 -6 -5 -7 
-5 -4 -7 -5 -4 -11 -8 -11 -4 -4 -7 -10 -7 -3 -6 -4 -2 -4 -8 -4 -6 -7 -4 -6 -3 -3 -10 -15 -4 -5 -7 -4 -5 -4 -4 -6 -4 -3 -5 -8 -4 -12 -15 -7 -8 -15 -15 -8 -8 -8 -5 -3 -4 -9 -6 -7 -3 -7 -5 -8 -13 -9 -6 -9 -3 -10 -7 -3 -6 -6 -4 -7 -4 -7 -7 -3 -4 -5 -3 -3 -5 -5 -5 -3 -7 -5 -6 -14 -9 -9 -7 -5 -3 -5 -7 -8 -7 -5 -5 -3 -5 -15 -5 -7 -14 -5 -4 -3 -4 -6 -6 -6 -4 -6 -4 -3 -3 -10 -7 -10 -3 -3 -3 -5 -13 -8 -3 -3 -7 -4 -4 -8 -4 -3 -4 -6 -8 -10 -7 -4 -6 -6 -8 -10 -5 -9 -3 -5 -3 -3 -8 -6 -3 -6 -8 -3 -13 -4 -3 -3 -3 -3 -11 -11 -3 -7 -13 -4 -4 -3 -4 -8 -10 -8 -10 -15 -3 -3 -8 -6 -8 -6 -9 -7 -5 -5 -9 -5 -3 -8 -12 -14 -4 -3 -7 -4 -7 -7 -7 -4 -3 -10 -10 -5 -5 -3 -5 -7 -5 -10 -5 -4 -7 -4 -14 -3 -4 -10 -2 -3 -10 -8 -5 -7 -5 -10 -10 -7 -10 -5 -3 -8 -15 -13 -8 -6 -9 -11 -7 -12 -3 -4 -8 -3 -5 -5 -3 -3 -8 -5 -6 -6 -13 -6 -5 -8 -8 -6 -6 -8 -4 -4 -4 -5 -9 -7 -5 -13 -13 -6 -5 -8 -8 -3 -4 -3 -7 -7 -2 -4 -7 -4 -8 -6 -8 -4 -2 -5 -7 -5 -5 -6 -3 -5 -15 -7 -4 -3 -3 -5 -3 -4 -5 -4 -3 -5 -5 -3 -5 -4 -6 
-4 -3 -6 -4 -3 -10 -7 -10 -3 -3 -6 -9 -6 -8 -5 -3 -6 -3 -7 -3 -5 -6 -3 -5 -15 -15 -9 -14 -3 -4 -6 -3 -4 -3 -3 -5 -3 -15 -4 -7 -3 -11 -14 -6 -7 -14 -14 -7 -7 -7 -4 -10 -3 -8 -5 -6 -10 -6 -4 -7 -12 -8 -5 -8 -10 -9 -6 -10 -5 -5 -3 -6 -3 -6 -6 -10 -3 -4 -6 -6 -4 -4 -4 -6 -6 -4 -5 -13 -8 -8 -6 -4 -15 -4 -6 -7 -6 -4 -4 -15 -4 -14 -4 -6 -13 -4 -3 -2 -3 -5 -5 -5 -3 -5 -3 -5 -5 -9 -6 -9 -6 -15 -10 -4 -12 -7 -15 -6 -6 -3 -3 -7 -3 -2 -3 -5 -7 -9 -6 -3 -5 -5 -7 -9 -4 -8 -15 -4 -3 -3 -7 -5 -2 -5 -7 -10 -12 -3 -6 -6 -4 -4 -10 -10 -15 -6 -12 -3 -3 -10 -3 -7 -9 -7 -9 -14 -15 -15 -7 -5 -7 -5 -8 -6 -4 -4 -8 -4 -15 -7 -11 -13 -3 -10 -6 -3 -6 -6 -6 -3 -8 -9 -9 -4 -4 -2 -4 -6 -4 -9 -4 -3 -6 -3 -13 -15 -3 -9 -10 -15 -9 -7 -4 -6 -4 -9 -9 -6 -9 -4 -2 -7 -14 -12 -7 -5 -8 -10 -6 -11 -2 -3 -7 -10 -4 -4 -10 -2 -7 -4 -5 -5 -12 -5 -4 -7 -7 -5 -5 -7 -3 -3 -3 -4 -8 -6 -4 -12 -12 -5 -4 -7 -7 -6 -3 -8 -6 -6 -6 -3 -6 -3 -7 -5 -7 -3 -6 -4 -6 -4 -4 -5 -15 -4 -14 -6 -3 -2 -2 -4 -2 -3 -4 -3 -6 -4 -4 -6 -4 -3 -5 
-3 -2 -5 -3 -2 -9 -6 -9 -2 -2 -5 -8 -5 -7 -4 -6 -5 -10 -6 -15 -4 -5 -5 -4 -14 -14 -8 -13 -5 -3 -5 -15 -3 -6 -4 -4 -6 -14 -3 -6 -8 -10 -13 -5 -6 -13 -13 -6 -6 -6 -3 -9 -10 -7 -4 -5 -9 -5 -3 -6 -11 -7 -4 -7 -9 -8 -5 -9 -4 -4 -10 -5 -10 -5 -5 -9 -15 -3 -5 -5 -3 -3 -3 -5 -5 -3 -4 -12 -7 -7 -5 -3 -14 -3 -5 -6 -5 -3 -3 -14 -3 -13 -3 -5 -12 -3 -6 -8 -8 -4 -4 -4 -4 -4 -5 -4 -4 -8 -5 -8 -5 -14 -9 -3 -11 -6 -14 -5 -5 -8 -6 -6 -10 -4 -4 -4 -6 -8 -5 -8 -4 -4 -6 -8 -3 -7 -14 -3 -3 -3 -6 -4 -8 -4 -6 -9 -11 -2 -5 -5 -3 -3 -9 -9 -14 -5 -11 -8 -10 -9 -15 -6 -8 -6 -8 -13 -14 -14 -6 -4 -6 -4 -7 -5 -3 -3 -7 -3 -14 -6 -10 -12 -10 -9 -5 -8 -5 -5 -5 -8 -7 -8 -8 -3 -3 -10 -3 -5 -3 -8 -3 -2 -5 -2 -12 -14 -2 -8 -9 -14 -8 -6 -3 -5 -3 -8 -8 -5 -8 -3 -10 -6 -13 -11 -6 -4 -7 -9 -5 -10 -10 -15 -6 -9 -3 -3 -9 -8 -6 -3 -4 -4 -11 -4 -3 -6 -6 -4 -4 -6 -6 -6 -6 -3 -7 -5 -3 -11 -11 -4 -3 -6 -6 -5 -2 -7 -5 -5 -5 -6 -5 -6 -6 -4 -6 -6 -5 -3 -5 -3 -3 -4 -14 -3 -13 -5 -6 -15 -15 -3 -4 -6 -3 -6 -5 -3 -3 -5 -3 -6 -4 
-15 -5 -4 -2 -15 -8 -5 -8 -10 -10 -4 -7 -4 -6 -3 -5 -4 -9 -5 -14 -3 -4 -4 -3 -13 -13 -7 -12 -4 -2 -4 -14 -2 -5 -3 -3 -5 -13 -15 -5 -7 -9 -12 -4 -5 -12 -12 -5 -5 -5 -10 -8 -9 -6 -3 -4 -8 -4 -6 -5 -10 -6 -3 -6 -8 -7 -4 -8 -3 -3 -9 -4 -9 -4 -4 -8 -14 -6 -4 -4 -6 -6 -6 -4 -4 -8 -10 -11 -6 -6 -4 -15 -13 -15 -4 -5 -4 -10 -10 -13 -10 -12 -15 -4 -11 -8 -5 -7 -7 -3 -3 -3 -3 -3 -4 -3 -3 -7 -4 -7 -4 -13 -8 -10 -10 -5 -13 -4 -4 -7 -5 -5 -9 -3 -3 -3 -5 -7 -4 -7 -3 -3 -5 -7 -8 -6 -13 -5 -2 -2 -5 -3 -7 -3 -5 -8 -10 -15 -4 -4 -4 -4 -8 -8 -13 -4 -10 -7 -9 -8 -14 -5 -7 -5 -7 -12 -13 -13 -5 -3 -5 -3 -6 -4 -10 -2 -6 -2 -13 -5 -9 -11 -9 -8 -4 -7 -4 -4 -4 -7 -6 -7 -7 -2 -2 -9 -2 -4 -2 -7 -8 -10 -4 -10 -11 -13 -15 -7 -8 -13 -7 -5 -8 -4 -5 -7 -7 -4 -7 -10 -9 -5 -12 -10 -5 -3 -6 -8 -4 -9 -9 -14 -5 -8 -15 -15 -8 -7 -5 -2 -3 -3 -10 -3 -2 -5 -5 -3 -3 -5 -5 -5 -5 -2 -6 -4 -2 -10 -10 -3 -10 -5 -5 -4 -15 -6 -4 -4 -4 -5 -4 -5 -5 -3 -5 -5 -4 -2 -4 -2 -8 -3 -13 -15 -12 -4 -5 -14 -14 -8 -3 -5 -2 -5 -4 -6 -6 -4 -2 -5 -3 
-14 -4 -3 -10 -14 -7 -4 -7 -9 -9 -3 -6 -3 -5 -2 -4 -3 -8 -4 -13 -2 -3 -3 -15 -12 -12 -6 -11 -3 -6 -3 -13 -5 -4 -4 -6 -4 -12 -14 -4 -6 -8 -11 -3 -4 -11 -11 -4 -4 -4 -9 -7 -8 -5 -8 -3 -7 -3 -5 -4 -9 -5 -10 -5 -7 -6 -3 -7 -15 -15 -8 -3 -8 -3 -3 -7 -13 -5 -3 -3 -5 -5 -5 -3 -3 -7 -9 -10 -5 -5 -3 -14 -12 -14 -3 -4 -3 -9 -9 -12 -9 -11 -14 -3 -10 -7 -4 -6 -6 -8 -8 -6 -4 -6 -3 -5 -5 -6 -3 -6 -3 -12 -7 -9 -9 -4 -12 -3 -3 -6 -4 -4 -8 -4 -4 -15 -4 -6 -3 -6 -6 -15 -4 -6 -7 -5 -12 -4 -3 -3 -4 -8 -6 -2 -4 -7 -9 -14 -3 -3 -3 -3 -7 -7 -12 -3 -9 -6 -8 -7 -13 -4 -6 -4 -6 -11 -12 -12 -4 -2 -4 -15 -5 -3 -9 -15 -5 -15 -12 -4 -8 -10 -8 -7 -3 -6 -3 -3 -3 -6 -5 -6 -6 -10 -10 -8 -10 -3 -10 -6 -7 -9 -3 -9 -10 -12 -14 -6 -7 -12 -6 -4 -7 -3 -4 -6 -6 -3 -6 -9 -8 -4 -11 -9 -4 -6 -5 -7 -3 -8 -8 -13 -4 -7 -14 -14 -7 -6 -4 -6 -2 -6 -9 -6 -6 -4 -4 -6 -6 -4 -4 -4 -4 -6 -5 -3 -6 -9 -9 -6 -9 -4 -4 -3 -14 -5 -3 -3 -3 -4 -3 -4 -4 -6 -4 -4 -3 -6 -3 -6 -7 -6 -12 -14 -11 -3 -4 -13 -13 -7 -4 -4 -6 -4 -3 -5 -5 -3 -6 -4 -2 
EOF
